NAME: random-59-19795
TYPE: TSP
COMMENT: size=59 seed=19795
DIMENSION: 120
EDGE_WEIGHT_TYPE: EUC_2D
NODE_COORD_SECTION
+0 565 814
-0 565 814
+1 88 142
-1 123 624
+2 223 861
-2 423 368
+3 284 842
-3 139 90
+4 570 211
-4 717 559
+5 77 37
-5 929 16
+6 597 525
-6 165 242
+7 322 965
-7 822 381
+8 875 732
-8 160 676
+9 924 924
-9 106 238
+10 935 737
-10 100 56
+11 863 889
-11 819 81
+12 724 29
-12 511 603
+13 78 153
-13 243 38
+14 970 277
-14 291 779
+15 161 881
-15 762 275
+16 885 769
-16 319 348
+17 540 762
-17 493 107
+18 677 752
-18 233 259
+19 63 943
-19 997 693
+20 683 523
-20 897 626
+21 673 758
-21 744 907
+22 297 827
-22 908 24
+23 119 670
-23 293 308
+24 641 836
-24 53 846
+25 450 601
-25 250 997
+26 741 805
-26 414 477
+27 117 731
-27 738 281
+28 156 221
-28 729 714
+29 76 688
-29 451 633
+30 453 370
-30 57 960
+31 821 210
-31 280 747
+32 510 395
-32 511 346
+33 365 251
-33 626 970
+34 401 800
-34 364 809
+35 443 581
-35 534 311
+36 512 173
-36 671 51
+37 795 280
-37 45 382
+38 907 367
-38 537 253
+39 79 723
-39 140 458
+40 603 60
-40 553 269
+41 243 74
-41 926 263
+42 485 596
-42 58 673
+43 457 840
-43 298 593
+44 427 327
-44 491 101
+45 129 924
-45 829 531
+46 712 855
-46 876 751
+47 988 20
-47 264 855
+48 377 24
-48 108 480
+49 86 70
-49 493 212
+50 194 225
-50 930 696
+51 190 556
-51 59 834
+52 446 450
-52 483 768
+53 505 35
-53 361 343
+54 410 420
-54 741 956
+55 239 436
-55 388 290
+56 831 339
-56 78 998
+57 370 127
-57 660 1
+58 481 795
-58 867 407
+59 463 562
-59 332 366
PRECEDENCE_SECTION
+0 -0
+1 -1
+2 -2
+3 -3
+4 -4
+5 -5
+6 -6
+7 -7
+8 -8
+9 -9
+10 -10
+11 -11
+12 -12
+13 -13
+14 -14
+15 -15
+16 -16
+17 -17
+18 -18
+19 -19
+20 -20
+21 -21
+22 -22
+23 -23
+24 -24
+25 -25
+26 -26
+27 -27
+28 -28
+29 -29
+30 -30
+31 -31
+32 -32
+33 -33
+34 -34
+35 -35
+36 -36
+37 -37
+38 -38
+39 -39
+40 -40
+41 -41
+42 -42
+43 -43
+44 -44
+45 -45
+46 -46
+47 -47
+48 -48
+49 -49
+50 -50
+51 -51
+52 -52
+53 -53
+54 -54
+55 -55
+56 -56
+57 -57
+58 -58
+59 -59
EOF
